41502 36801 
42201 36055 
42367 35440 
42201 36055 
40014 38343 
40459 37971 
40991 37488 
40905 37517 
41783 36730 
41608 36984 
41606 37122 
38004 39670 
40026 38731 
40648 37511 
41188 37445 
37452 40096 
40915 37862 
42201 36055 
42201 36055 
38531 39471 
41974 35418 
41974 35418 
41344 37151 
41963 36119 
41588 36772 
39297 38957 
39010 39264 
38869 39469 
39803 38644 
39299 39024 
40513 38046 
41963 36119 
41292 36873 
39297 38957 
38531 39683 
40026 38731 
37051 39570 
39899 38579 
39548 38869 
38455 39604 
41588 36772 
39325 39163 
38820 39504 
40915 37862 
38638 39599 
36630 40271 
41608 36984 
41344 37151 
40674 38022 
37265 39830 
41608 36984 
41286 37355 
41622 36842 
41588 36772 
41954 36369 
